certificates/rado_a6_c290_N48.drat
-48 0
46 0
-32 0
30 0
34 0
-16 0
-44 0
-20 0
14 0
18 0
42 0
43 0
22 0
6 0
-28 0
-45 0
0
